language ESSENCE' 1.0
$ Minion SolverNodes: 12728413
$ Minion SolverTotalTime: 46.625
$ Minion SolverTimeOut: 0
$ Savile Row TotalTime: 0.483
letting allocations be [[0, 21, 0], 
[0, 0, 1], 
[0, 10, 0], 
[0, 5, 0], 
[0, 30, 0]]
